Route #1: 101 61 17 110 75 118 147 15 122 38 41 143
Route #2: 16 68 36 103 65 87 97 142 128 26 120 14
Route #3: 4 35 54 6 121 73 62 106 3 42 32 99
Route #4: 56 67 152 37 116 27 102 96 150 8 59 149
Route #5: 132 86 94 66 28 7 137 117 1 125 139 92
Route #6: 57 5 126 78 146 80 40 108 9 77 45 83
Route #7: 11 2 119 12 60 109 81 89 112 136 76 153
Route #8: 72 48 33 82 84 79 74 25 138 107 18 34
Route #9: 30 22 155 52 134 10 39 58 29 114 90 51
Route #10: 113 100 88 43 24 156 141 64 63 91 129 13
Route #11: 151 47 70 145 127 104 46 130 111 124 44 19
Route #12: 148 71 105 50 31 140 23 133 131 55 115 95
Route #13: 21 154 98 123 53 144 85 135 93 69 20 49
Cost 18344
